<?xml version = "1.0" standalone="yes"?>
<!-- This file has been generated by DOcplex version 2.23.222  -->
<CPLEXSolution version="1.0">
 <header
   problemName="CVRP"
   objectiveValue="11041.6"
  />
 <variables>
  <variable name="x_0_3" index="2" value="1.00000"/>
  <variable name="x_0_4" index="3" value="1.00000"/>
  <variable name="x_0_5" index="4" value="1.00000"/>
  <variable name="x_0_6" index="5" value="1.00000"/>
  <variable name="x_0_7" index="6" value="1.00000"/>
  <variable name="x_0_9" index="8" value="1.00000"/>
  <variable name="x_0_12" index="11" value="1.00000"/>
  <variable name="x_0_16" index="15" value="1.00000"/>
  <variable name="x_0_17" index="16" value="1.00000"/>
  <variable name="x_0_20" index="19" value="1.00000"/>
  <variable name="x_1_0" index="21" value="1.00000"/>
  <variable name="x_2_8" index="49" value="1.00000"/>
  <variable name="x_3_21" index="83" value="1.00000"/>
  <variable name="x_4_0" index="84" value="1.00000"/>
  <variable name="x_5_2" index="107" value="1.00000"/>
  <variable name="x_6_0" index="126" value="1.00000"/>
  <variable name="x_7_11" index="157" value="1.00000"/>
  <variable name="x_8_18" index="185" value="1.00000"/>
  <variable name="x_9_0" index="189" value="1.00000"/>
  <variable name="x_10_0" index="210" value="1.00000"/>
  <variable name="x_11_15" index="245" value="1.00000"/>
  <variable name="x_12_13" index="264" value="1.00000"/>
  <variable name="x_13_0" index="273" value="1.00000"/>
  <variable name="x_14_0" index="294" value="1.00000"/>
  <variable name="x_15_0" index="315" value="1.00000"/>
  <variable name="x_16_1" index="337" value="1.00000"/>
  <variable name="x_17_10" index="367" value="1.00000"/>
  <variable name="x_18_14" index="392" value="1.00000"/>
  <variable name="x_19_0" index="399" value="1.00000"/>
  <variable name="x_20_0" index="420" value="1.00000"/>
  <variable name="x_21_19" index="460" value="1.00000"/>
  <variable name="u_1" index="462" value="26.00000"/>
  <variable name="u_2" index="463" value="19.00000"/>
  <variable name="u_3" index="464" value="2.00000"/>
  <variable name="u_4" index="465" value="18.00000"/>
  <variable name="u_5" index="466" value="9.00000"/>
  <variable name="u_6" index="467" value="22.00000"/>
  <variable name="u_7" index="468" value="12.00000"/>
  <variable name="u_8" index="469" value="21.00000"/>
  <variable name="u_9" index="470" value="25.00000"/>
  <variable name="u_10" index="471" value="20.00000"/>
  <variable name="u_11" index="472" value="22.00000"/>
  <variable name="u_12" index="473" value="6.00000"/>
  <variable name="u_13" index="474" value="25.00000"/>
  <variable name="u_14" index="475" value="24.00000"/>
  <variable name="u_15" index="476" value="25.00000"/>
  <variable name="u_16" index="477" value="21.00000"/>
  <variable name="u_17" index="478" value="16.00000"/>
  <variable name="u_18" index="479" value="22.00000"/>
  <variable name="u_19" index="480" value="25.00000"/>
  <variable name="u_20" index="481" value="26.00000"/>
  <variable name="u_21" index="482" value="15.00000"/>
 </variables>
</CPLEXSolution>
